objective value:                                  -19
t_N#1#2                                             1 	(obj:-1)
t_N#19#20                                           1 	(obj:-1)
t_N#30#31                                           1 	(obj:-1)
t_N#38#39                                           1 	(obj:-1)
t_N#46#47                                           1 	(obj:-1)
t_N#2#9                                             1 	(obj:-1)
t_N#4#11                                            1 	(obj:-1)
t_N#20#27                                           1 	(obj:-1)
t_N#31#38                                           1 	(obj:-1)
t_N#39#46                                           1 	(obj:-1)
t_N#1#9                                             1 	(obj:-1)
t_N#9#17                                            1 	(obj:-1)
t_N#11#19                                           1 	(obj:-1)
t_N#19#27                                           1 	(obj:-1)
t_N#30#38                                           1 	(obj:-1)
t_N#31#39                                           1 	(obj:-1)
t_N#36#44                                           1 	(obj:-1)
t_N#38#46                                           1 	(obj:-1)
t_N#39#47                                           1 	(obj:-1)
t_x#47#29                                           1 	(obj:0)
t_x#46#30                                           1 	(obj:0)
t_x#44#32                                           1 	(obj:0)
t_x#39#27                                           1 	(obj:0)
t_x#38#1                                            1 	(obj:0)
t_x#36#34                                           1 	(obj:0)
t_x#31#26                                           1 	(obj:0)
t_x#30#3                                            1 	(obj:0)
t_x#27#18                                           1 	(obj:0)
t_x#20#16                                           1 	(obj:0)
t_x#19#20                                           1 	(obj:0)
t_x#17#23                                           1 	(obj:0)
t_x#11#11                                           1 	(obj:0)
t_x#9#6                                             1 	(obj:0)
t_x#4#13                                            1 	(obj:0)
t_x#2#9                                             1 	(obj:0)
t_x#1#8                                             1 	(obj:0)
t_x#45#31                                           1 	(obj:0)
t_x#43#33                                           1 	(obj:0)
t_x#40#28                                           1 	(obj:0)
t_x#37#2                                            1 	(obj:0)
t_x#32#25                                           1 	(obj:0)
t_x#29#35                                           1 	(obj:0)
t_x#28#17                                           1 	(obj:0)
t_x#26#19                                           1 	(obj:0)
t_x#25#22                                           1 	(obj:0)
t_x#24#24                                           1 	(obj:0)
t_x#23#4                                            1 	(obj:0)
t_x#18#21                                           1 	(obj:0)
t_x#16#5                                            1 	(obj:0)
t_x#12#15                                           1 	(obj:0)
t_x#10#10                                           1 	(obj:0)
t_x#8#7                                             1 	(obj:0)
t_x#5#14                                            1 	(obj:0)
t_x#3#12                                            1 	(obj:0)
